s td 104 16 136
b 1 2 61 72 127
b 2 4 11 58 85 126
b 3 6 8 26 32 44
b 4 13 24 41 100
b 5 8 15 72 81
b 6 18 19 43 72 105
b 7 27 86 122 126 129
b 8 30 78 99 103 134
b 9 37 40 49 107 127
b 10 41 47 100
b 11 3 5 53 126
b 12 55 69 118 127
b 13 76 82 112 127
b 14 8 108 123 131
b 15 10 12 116
b 16 54 90 119 121 124
b 17 8 64 88 128
b 18 16 20 29 111 133
b 19 31 69 107 127
b 20 69 107 118 127
b 21 40 69 107 127
b 22 8 26 39 64
b 23 8 26 64 88
b 24 8 26 32 64
b 25 8 26 32 131
b 26 8 26 106 131
b 27 8 26 123 131
b 28 8 26 131
b 29 40 76 107 127
b 30 60 76 107 127
b 31 76 107 112 127
b 32 57 68 83 101
b 33 1 3 5 65 126
b 34 17 23 67 102
b 35 35 58 101 107 127
b 36 21 34 50 51 92
b 37 10 12 52 111
b 38 3 5 9 12 21 25 43 50 56 71 72 90 92 96 119 126
b 39 3 12 19 21 25 43 50 56 72 90 92 96 126
b 40 3 12 19 20 21 43 50 56 72 90 92 96 126
b 41 3 12 16 20 21 29 43 50 56 72 92 96 126
b 42 3 8 16 21 29 43 50 56 72 92 96 110 126
b 43 7 8 16 56 96 110
b 44 3 8 21 29 36 43 50 56 72 92 96 110 126
b 45 3 8 21 29 36 43 50 72 92 110 126 129
b 46 3 8 21 29 36 50 59 86 92 110 126 129
b 47 3 21 29 36 50 59 86 92 97 126 129
b 48 21 29 34 36 50 86 92 97
b 49 29 34 36 50 79 86 92 97
b 50 29 34 36 50 77 79 86 97
b 51 34 36 46 50 77 79 86 97
b 52 36 46 50 73 79 86 97
b 53 29 36 50 75 77 79 86 97
b 54 29 36 50 75 77 86 130
b 55 8 43 72 110 129 132
b 56 8 36 56 89 96 110
b 57 8 43 72 81 110
b 58 10 12 16 20 21 29 50 92
b 59 10 12 16 20 29 111
b 60 12 19 20 21 43 50 56 72 90 92 96 100
b 61 19 20 43 72 90 100 105
b 62 3 5 9 21 43 50 56 71 72 80 90 92 96 113 119 126
b 63 3 5 9 21 28 43 50 56 72 80 90 92 96 113 119 126
b 64 3 5 28 43 50 56 72 80 90 92 96 113 119 125 126
b 65 3 28 43 50 54 56 72 80 90 92 96 119 121 125 126
b 66 3 28 43 50 54 56 72 80 92 96 109 121 125 126
b 67 3 22 43 50 56 72 80 92 96 109 121 125 126 127
b 68 3 11 22 43 50 56 72 80 92 96 109 125 126 127
b 69 3 11 22 50 56 80 92 96 109 114 125 126 127
b 70 3 11 22 50 58 80 83 92 109 114 125 126 127
b 71 14 50 58 80 83 92 114
b 72 3 11 48 58 83 125 126
b 73 3 11 58 83 85 126
b 74 50 58 83 92 98 109 114
b 75 22 58 83 107 127
b 76 58 83 101 107 127
b 77 22 42 56 96 114 127
b 78 11 22 43 72 93 127
b 79 22 43 61 72 127
b 80 22 56 96 104 121 127
b 81 3 5 9 12 21 25 43 50 56 71 72 78 92 96 119 126
b 82 3 5 9 12 21 25 43 56 71 72 78 95 96 119 126
b 83 3 5 12 21 25 43 56 65 72 78 95 96 126
b 84 5 12 21 43 56 65 72 78 96 99
b 85 43 56 72 78 96 99 134
b 86 68 83 101 107 127
b 87 8 26 74 86 87
b 88 8 26 59 86 87
b 89 8 26 59 86 110
b 90 21 45 62 84 115
b 91 20 66 90 100 105
b 92 3 43 63 72 117 126
b 93 50 56 62 92 96 136
b 94 23 45 67 70 102
b 95 12 21 45 62 67 70 102
b 96 12 21 45 62 67 84
b 97 12 21 33 62 70 102
b 98 3 5 25 43 63 65 72 94 126
b 99 86 91 97 126 129 135
b 100 86 97 122 126 129 135
b 101 3 86 97 126 129 135
b 102 12 21 38 50 62 84 92 96 120
b 103 12 21 38 50 56 62 67 84 92 96
b 104 12 21 38 50 56 67 92 96 100
1 79
2 73
3 25
4 10
5 57
6 61
7 100
8 85
9 29
10 60
11 38
12 20
13 31
14 27
15 58
16 65
17 23
18 59
19 21
20 21
21 29
22 24
23 24
24 25
25 28
26 28
27 28
28 89
29 31
30 31
31 75
32 86
33 83
34 94
35 76
36 48
37 59
38 39
38 62
38 81
39 40
40 41
40 60
41 42
41 58
42 43
42 44
42 57
44 45
44 56
45 46
45 55
46 89
46 47
47 101
47 48
48 49
49 50
50 51
50 53
51 52
53 54
58 59
60 104
60 61
61 91
62 63
63 64
64 65
65 66
66 67
67 68
67 79
67 80
68 69
68 78
69 70
69 77
70 71
70 72
70 73
70 74
70 75
75 76
76 86
81 82
82 83
83 98
83 84
84 85
87 88
88 89
90 96
92 98
93 103
94 95
95 97
95 96
96 103
99 101
100 101
102 103
103 104
